(set-info :Origin "This instance was generated by: BanditFuzz-- an RL fuzzer for SMT solvers" )
(set-info :Author "Joe Scott, Fed Mora, Vijay Ganesh" )
(set-info :Contact "Joe Scott, joseph.scott@uwaterloo.ca")
(set-logic QF_BV)
(declare-const bool_0 Bool)
(declare-const bool_1 Bool)
(declare-const bool_2 Bool)
(declare-const bool_3 Bool)
(declare-const bool_4 Bool)
(declare-const bv_0 (_ BitVec 32))
(declare-const bv_1 (_ BitVec 32))
(declare-const bv_2 (_ BitVec 32))
(declare-const bv_3 (_ BitVec 32))
(declare-const bv_4 (_ BitVec 32))
(assert (xor (bvsle (bvmul bv_4 bv_0) (bvsdiv #x38b7b7f2  bv_4)) (not (bvslt bv_2 bv_2))))
(assert (bvult (bvxor (bvxnor bv_1 bv_0) (bvand #x9dd6a687  #xe99cf3ec )) (bvand (bvudiv bv_3 bv_4) (bvsdiv #x8726e4cc  bv_3))))
(assert (bvslt (bvsub (bvxnor bv_0 #xfb59c51d ) (bvxor bv_1 #xcbf2786e )) (bvnor (bvsmod bv_0 #x802d15dd ) (bvsdiv bv_0 bv_2))))
(assert (or (bvugt (bvsub bv_4 #x03c818d2 ) (bvsdiv bv_2 bv_3)) (bvule (bvudiv bv_0 #x83eeb636 ) (bvsdiv bv_3 #x9604a629 ))))
(assert (and (bvsle (bvand #x78a0b552  #x4a695c4e ) (bvsdiv #xc75c12bc  #xd815bb7f )) (bvsle (bvsrem #x14c57984  bv_0) (bvnand #x0819e0de  bv_1))))
(check-sat)
(exit)
